0 0 10 
1 0 100 
2 0 102 
3 0 103 
4 0 111 
5 0 112 
6 0 118 
7 0 121 
8 0 127 
9 0 130 
10 0 136 
11 0 139 
12 0 145 
13 0 148 
14 0 166 
15 0 175 
16 0 184 
17 0 19 
18 0 193 
19 0 28 
20 0 32 
21 0 33 
22 0 37 
23 0 43 
24 0 46 
25 0 55 
26 0 64 
27 0 73 
28 0 82 
29 0 91 
30 2 102 
31 2 106 
32 2 107 
33 2 111 
34 2 112 
35 2 115 
36 2 116 
37 2 117 
38 2 12 
39 2 122 
40 2 124 
41 2 127 
42 2 128 
43 2 132 
44 2 133 
45 2 136 
46 2 137 
47 2 138 
48 2 14 
49 2 143 
50 2 149 
51 2 150 
52 2 152 
53 2 153 
54 2 156 
55 2 157 
56 2 159 
57 2 16 
58 2 160 
59 2 163 
60 2 166 
61 2 179 
62 2 18 
63 2 193 
64 2 195 
65 2 21 
66 2 23 
67 2 25 
68 2 26 
69 2 27 
70 2 28 
71 2 30 
72 2 32 
73 2 33 
74 2 34 
75 2 35 
76 2 37 
77 2 39 
78 2 40 
79 2 42 
80 2 44 
81 2 51 
82 2 58 
83 2 59 
84 2 60 
85 2 62 
86 2 64 
87 2 65 
88 2 69 
89 2 71 
90 2 72 
91 2 73 
92 2 74 
93 2 76 
94 2 78 
95 2 79 
96 2 80 
97 2 81 
98 2 83 
99 2 84 
100 2 85 
101 2 87 
102 2 88 
103 2 89 
104 2 91 
105 2 93 
106 2 94 
107 2 96 
108 3 109 
109 3 130 
110 5 11 
111 5 14 
112 5 19 
113 5 23 
114 5 31 
115 5 39 
116 5 41 
117 5 44 
118 5 48 
119 5 52 
120 5 55 
121 5 68 
122 5 7 
123 5 77 
124 5 86 
125 5 93 
126 5 96 
127 8 0 
128 8 62 
129 8 69 
130 8 83 
131 9 12 
132 9 21 
133 9 37 
134 9 42 
135 9 62 
136 9 65 
137 9 69 
138 9 83 
139 9 91 
140 9 94 
141 10 12 
142 10 165 
143 10 178 
144 10 18 
145 10 21 
146 10 30 
147 10 37 
148 10 40 
149 10 42 
150 10 51 
151 10 63 
152 10 65 
153 10 70 
154 10 76 
155 10 83 
156 10 91 
157 10 94 
158 11 12 
159 11 145 
160 11 165 
161 11 178 
162 11 18 
163 11 189 
164 11 21 
165 11 30 
166 11 37 
167 11 40 
168 11 42 
169 11 5 
170 11 51 
171 11 53 
172 11 62 
173 11 65 
174 11 69 
175 11 76 
176 11 83 
177 11 91 
178 11 94 
179 12 45 
180 12 65 
181 12 8 
182 14 0 
183 15 0 
184 15 11 
185 15 19 
186 15 203 
187 15 31 
188 15 41 
189 15 48 
190 15 52 
191 15 64 
192 15 68 
193 15 71 
194 15 77 
195 15 86 
196 16 0 
197 16 203 
198 17 0 
199 17 106 
200 17 112 
201 17 115 
202 17 122 
203 17 124 
204 17 127 
205 17 133 
206 17 136 
207 17 143 
208 17 150 
209 17 153 
210 17 156 
211 17 16 
212 17 160 
213 17 163 
214 17 203 
215 17 26 
216 17 27 
217 17 28 
218 17 33 
219 17 34 
220 17 35 
221 17 59 
222 17 60 
223 17 73 
224 17 74 
225 17 79 
226 17 80 
227 17 81 
228 17 88 
229 17 89 
230 18 0 
231 18 102 
232 18 110 
233 18 116 
234 18 131 
235 18 137 
236 18 203 
237 18 66 
238 18 67 
239 25 101 
240 25 102 
241 25 104 
242 25 105 
243 25 108 
244 25 109 
245 25 113 
246 25 114 
247 25 117 
248 25 118 
249 25 119 
250 25 12 
251 25 124 
252 25 126 
253 25 129 
254 25 130 
255 25 134 
256 25 135 
257 25 138 
258 25 139 
259 25 14 
260 25 140 
261 25 145 
262 25 147 
263 25 150 
264 25 151 
265 25 155 
266 25 156 
267 25 159 
268 25 16 
269 25 160 
270 25 161 
271 25 166 
272 25 168 
273 25 171 
274 25 172 
275 25 176 
276 25 177 
277 25 18 
278 25 180 
279 25 181 
280 25 182 
281 25 187 
282 25 189 
283 25 19 
284 25 191 
285 25 192 
286 25 21 
287 25 23 
288 25 25 
289 25 32 
290 25 34 
291 25 35 
292 25 40 
293 25 43 
294 25 47 
295 25 49 
296 25 51 
297 25 56 
298 25 60 
299 25 62 
300 25 64 
301 25 65 
302 25 66 
303 25 68 
304 25 70 
305 25 78 
306 25 82 
307 25 84 
308 25 85 
309 25 86 
310 25 87 
311 25 89 
312 25 90 
313 25 91 
314 25 93 
315 25 97 
316 25 98 
317 25 99 
318 26 111 
319 26 132 
320 26 153 
321 26 174 
322 28 11 
323 28 13 
324 28 15 
325 28 195 
326 28 20 
327 28 28 
328 28 31 
329 28 38 
330 28 46 
331 28 49 
332 28 54 
333 28 59 
334 28 61 
335 28 63 
336 28 7 
337 28 70 
338 28 72 
339 28 74 
340 28 81 
341 28 84 
342 28 96 
343 31 16 
344 31 21 
345 31 32 
346 31 42 
347 31 50 
348 31 55 
349 32 16 
350 32 21 
351 32 25 
352 32 32 
353 32 35 
354 32 42 
355 32 47 
356 32 50 
357 32 55 
358 32 68 
359 32 78 
360 32 82 
361 32 93 
362 33 12 
363 33 14 
364 33 17 
365 33 19 
366 33 22 
367 33 25 
368 33 33 
369 33 35 
370 33 42 
371 33 47 
372 33 50 
373 33 55 
374 33 60 
375 33 62 
376 33 68 
377 33 78 
378 33 82 
379 33 93 
380 34 12 
381 34 14 
382 34 16 
383 34 19 
384 34 194 
385 34 21 
386 34 25 
387 34 29 
388 34 32 
389 34 35 
390 34 42 
391 34 47 
392 34 5 
393 34 50 
394 34 55 
395 34 60 
396 34 62 
397 34 68 
398 34 71 
399 34 78 
400 34 82 
401 34 93 
402 35 25 
403 35 35 
404 35 42 
405 35 50 
406 35 55 
407 35 78 
408 35 8 
409 35 93 
410 36 0 
411 36 203 
412 37 0 
413 38 0 
414 38 11 
415 38 13 
416 38 15 
417 38 18 
418 38 195 
419 38 20 
420 38 23 
421 38 28 
422 38 34 
423 38 38 
424 38 61 
425 38 63 
426 38 72 
427 38 74 
428 38 81 
429 38 96 
430 40 102 
431 40 105 
432 40 108 
433 40 114 
434 40 117 
435 40 124 
436 40 126 
437 40 129 
438 40 135 
439 40 138 
440 40 145 
441 40 147 
442 40 150 
443 40 156 
444 40 159 
445 40 166 
446 40 168 
447 40 171 
448 40 177 
449 40 180 
450 40 187 
451 40 189 
452 40 192 
453 40 40 
454 40 65 
455 40 66 
456 40 86 
457 40 87 
458 40 90 
459 40 91 
460 40 98 
461 40 99 
462 41 112 
463 41 118 
464 41 133 
465 41 139 
466 41 154 
467 41 160 
468 41 175 
469 41 181 
470 41 26 
471 41 27 
472 41 36 
473 41 37 
474 41 44 
475 41 45 
476 41 52 
477 41 53 
478 41 57 
479 41 58 
480 41 79 
481 41 80 
482 41 94 
483 41 95 
484 48 12 
485 48 121 
486 48 122 
487 48 132 
488 48 133 
489 48 135 
490 48 147 
491 48 148 
492 48 149 
493 48 15 
494 48 150 
495 48 17 
496 48 174 
497 48 175 
498 48 179 
499 48 180 
500 48 183 
501 48 184 
502 48 185 
503 48 190 
504 48 192 
505 48 25 
506 48 27 
507 48 32 
508 48 35 
509 48 37 
510 48 39 
511 48 40 
512 48 44 
513 48 45 
514 48 46 
515 48 65 
516 48 67 
517 48 80 
518 48 81 
519 48 85 
520 48 86 
521 48 89 
522 48 90 
523 48 91 
524 48 96 
525 48 98 
526 49 136 
527 49 177 
528 49 83 
529 51 11 
530 51 13 
531 51 17 
532 51 196 
533 51 20 
534 51 24 
535 51 26 
536 51 30 
537 51 36 
538 51 43 
539 51 51 
540 51 55 
541 51 59 
542 51 7 
543 51 70 
544 51 73 
545 51 75 
546 52 0 
547 53 0 
548 53 203 
549 54 0 
550 54 203 
551 54 37 
552 55 15 
553 55 166 
554 55 27 
555 55 37 
556 55 40 
557 55 52 
558 55 55 
559 55 59 
560 56 12 
561 56 15 
562 56 25 
563 56 27 
564 56 35 
565 56 38 
566 56 40 
567 56 53 
568 56 57 
569 57 100 
570 57 12 
571 57 15 
572 57 166 
573 57 18 
574 57 194 
575 57 25 
576 57 27 
577 57 35 
578 57 37 
579 57 40 
580 57 5 
581 57 61 
582 57 69 
583 57 72 
584 58 21 
585 58 27 
586 58 40 
587 58 48 
588 58 8 
589 61 11 
590 61 13 
591 61 24 
592 61 26 
593 61 30 
594 61 36 
595 61 39 
596 61 43 
597 61 51 
598 61 54 
599 61 58 
600 61 70 
601 61 73 
602 61 75 
603 63 0 
604 63 121 
605 63 147 
606 63 149 
607 63 174 
608 63 180 
609 63 183 
610 63 190 
611 63 192 
612 63 203 
613 63 32 
614 63 45 
615 63 46 
616 63 80 
617 63 86 
618 63 89 
619 63 96 
620 63 98 
621 64 120 
622 64 131 
623 64 137 
624 64 150 
625 64 178 
626 64 184 
627 64 28 
628 64 29 
629 64 41 
630 64 42 
631 64 84 
632 64 90 
633 71 103 
634 71 105 
635 71 108 
636 71 109 
637 71 113 
638 71 114 
639 71 117 
640 71 118 
641 71 119 
642 71 124 
643 71 131 
644 71 132 
645 71 136 
646 71 137 
647 71 140 
648 71 141 
649 71 142 
650 71 147 
651 71 154 
652 71 155 
653 71 159 
654 71 16 
655 71 160 
656 71 163 
657 71 164 
658 71 165 
659 71 170 
660 71 172 
661 71 174 
662 71 175 
663 71 177 
664 71 178 
665 71 185 
666 71 19 
667 71 20 
668 71 21 
669 71 23 
670 71 25 
671 71 26 
672 71 27 
673 71 29 
674 71 31 
675 71 32 
676 71 34 
677 71 35 
678 71 36 
679 71 40 
680 71 41 
681 71 42 
682 71 44 
683 71 46 
684 71 47 
685 71 48 
686 71 49 
687 71 59 
688 71 61 
689 71 66 
690 71 67 
691 71 71 
692 71 72 
693 71 75 
694 71 76 
695 71 77 
696 71 82 
697 71 84 
698 71 87 
699 71 88 
700 71 9 
701 71 92 
702 71 93 
703 71 96 
704 71 97 
705 71 98 
706 72 0 
707 72 111 
708 72 134 
709 72 157 
710 72 203 
711 72 69 
712 72 90 
713 73 0 
714 74 0 
715 74 190 
716 74 193 
717 74 197 
718 74 24 
719 74 33 
720 74 54 
721 74 6 
722 77 29 
723 77 44 
724 78 29 
725 78 44 
726 79 23 
727 79 30 
728 79 32 
729 79 45 
730 80 126 
731 80 149 
732 80 188 
733 80 191 
734 80 23 
735 80 29 
736 80 32 
737 80 44 
738 80 5 
739 80 55 
740 81 51 
741 84 24 
742 84 31 
743 84 33 
744 84 46 
745 84 54 
746 84 6 
747 86 103 
748 86 105 
749 86 108 
750 86 114 
751 86 117 
752 86 124 
753 86 131 
754 86 137 
755 86 140 
756 86 147 
757 86 154 
758 86 160 
759 86 163 
760 86 170 
761 86 172 
762 86 175 
763 86 178 
764 86 20 
765 86 21 
766 86 26 
767 86 27 
768 86 35 
769 86 36 
770 86 41 
771 86 42 
772 86 48 
773 86 49 
774 86 66 
775 86 72 
776 86 75 
777 86 82 
778 86 84 
779 86 87 
780 86 9 
781 86 93 
782 86 96 
783 87 0 
784 87 112 
785 87 118 
786 87 135 
787 87 141 
788 87 158 
789 87 16 
790 87 164 
791 87 185 
792 87 70 
793 87 76 
794 87 91 
795 87 97 
796 88 0 
797 89 0 
798 89 203 
799 90 0 
800 90 203 
801 94 100 
802 94 102 
803 94 104 
804 94 108 
805 94 109 
806 94 110 
807 94 111 
808 94 114 
809 94 116 
810 94 118 
811 94 12 
812 94 120 
813 94 121 
814 94 122 
815 94 127 
816 94 128 
817 94 132 
818 94 133 
819 94 136 
820 94 137 
821 94 138 
822 94 14 
823 94 143 
824 94 145 
825 94 147 
826 94 148 
827 94 149 
828 94 15 
829 94 151 
830 94 153 
831 94 154 
832 94 156 
833 94 158 
834 94 163 
835 94 165 
836 94 177 
837 94 178 
838 94 181 
839 94 182 
840 94 184 
841 94 187 
842 94 194 
843 94 23 
844 94 25 
845 94 27 
846 94 29 
847 94 30 
848 94 34 
849 94 35 
850 94 36 
851 94 38 
852 94 40 
853 94 45 
854 94 51 
855 94 54 
856 94 56 
857 94 60 
858 94 65 
859 94 69 
860 94 70 
861 94 71 
862 94 73 
863 94 75 
864 94 77 
865 94 78 
866 94 79 
867 94 89 
868 94 9 
869 94 91 
870 94 95 
871 94 98 
872 95 130 
873 97 107 
874 97 115 
875 97 117 
876 97 120 
877 97 14 
878 97 155 
879 97 158 
880 97 162 
881 97 165 
882 97 168 
883 97 171 
884 97 175 
885 97 18 
886 97 185 
887 97 33 
888 97 37 
889 97 39 
890 97 43 
891 97 48 
892 97 52 
893 97 55 
894 97 59 
895 97 6 
896 97 63 
897 97 68 
898 97 75 
899 97 84 
900 97 96 
901 100 102 
902 100 151 
903 100 27 
904 100 34 
905 100 44 
906 100 64 
907 100 98 
908 101 102 
909 101 118 
910 101 12 
911 101 15 
912 101 151 
913 101 156 
914 101 163 
915 101 27 
916 101 30 
917 101 34 
918 101 40 
919 101 44 
920 101 56 
921 101 60 
922 101 64 
923 101 73 
924 101 98 
925 102 103 
926 102 114 
927 102 116 
928 102 118 
929 102 12 
930 102 15 
931 102 152 
932 102 154 
933 102 156 
934 102 163 
935 102 184 
936 102 28 
937 102 30 
938 102 34 
939 102 38 
940 102 40 
941 102 44 
942 102 51 
943 102 54 
944 102 56 
945 102 60 
946 102 64 
947 102 73 
948 102 95 
949 102 99 
950 103 102 
951 103 105 
952 103 114 
953 103 116 
954 103 118 
955 103 12 
956 103 15 
957 103 151 
958 103 154 
959 103 156 
960 103 163 
961 103 166 
962 103 169 
963 103 184 
964 103 19 
965 103 27 
966 103 30 
967 103 34 
968 103 38 
969 103 40 
970 103 44 
971 103 5 
972 103 51 
973 103 54 
974 103 56 
975 103 60 
976 103 64 
977 103 73 
978 103 85 
979 103 95 
980 103 98 
981 104 15 
982 104 159 
983 104 30 
984 104 40 
985 104 44 
986 104 56 
987 104 60 
988 104 64 
989 104 81 
990 107 100 
991 107 104 
992 107 115 
993 107 117 
994 107 153 
995 107 155 
996 107 162 
997 107 18 
998 107 185 
999 107 29 
1000 107 33 
1001 107 37 
1002 107 39 
1003 107 43 
1004 107 52 
1005 107 55 
1006 107 59 
1007 107 6 
1008 107 63 
1009 107 84 
1010 107 96 
1011 108 0 
1012 108 203 
1013 109 0 
1014 109 109 
1015 109 110 
1016 109 111 
1017 109 122 
1018 109 127 
1019 109 133 
1020 109 136 
1021 109 143 
1022 109 145 
1023 109 148 
1024 109 149 
1025 109 178 
1026 109 181 
1027 109 182 
1028 109 187 
1029 109 70 
1030 109 71 
1031 109 78 
1032 109 79 
1033 109 9 
1034 110 131 
1035 110 137 
1036 110 16 
1037 110 17 
1038 110 194 
1039 110 31 
1040 110 32 
1041 110 41 
1042 110 42 
1043 110 46 
1044 110 47 
1045 110 57 
1046 110 58 
1047 110 61 
1048 110 62 
1049 110 66 
1050 110 67 
1051 117 102 
1052 117 103 
1053 117 104 
1054 117 108 
1055 117 115 
1056 117 116 
1057 117 118 
1058 117 119 
1059 117 12 
1060 117 120 
1061 117 127 
1062 117 128 
1063 117 132 
1064 117 133 
1065 117 136 
1066 117 137 
1067 117 138 
1068 117 14 
1069 117 143 
1070 117 145 
1071 117 148 
1072 117 149 
1073 117 15 
1074 117 151 
1075 117 155 
1076 117 157 
1077 117 159 
1078 117 160 
1079 117 162 
1080 117 163 
1081 117 164 
1082 117 180 
1083 117 184 
1084 117 19 
1085 117 195 
1086 117 20 
1087 117 21 
1088 117 31 
1089 117 33 
1090 117 35 
1091 117 37 
1092 117 38 
1093 117 42 
1094 117 44 
1095 117 57 
1096 117 58 
1097 117 59 
1098 117 60 
1099 117 62 
1100 117 64 
1101 117 65 
1102 117 66 
1103 117 68 
1104 117 72 
1105 117 73 
1106 117 74 
1107 117 76 
1108 117 77 
1109 117 78 
1110 117 80 
1111 117 89 
1112 117 95 
1113 117 98 
1114 117 99 
1115 118 130 
1116 120 109 
1117 120 113 
1118 120 121 
1119 120 124 
1120 120 14 
1121 120 154 
1122 120 18 
1123 120 185 
1124 120 187 
1125 120 190 
1126 120 192 
1127 120 26 
1128 120 28 
1129 120 32 
1130 120 34 
1131 120 41 
1132 120 43 
1133 120 47 
1134 120 50 
1135 120 54 
1136 120 6 
1137 120 64 
1138 120 71 
1139 120 8 
1140 120 83 
1141 120 94 
1142 120 96 
1143 123 118 
1144 123 155 
1145 123 35 
1146 124 118 
1147 124 12 
1148 124 15 
1149 124 151 
1150 124 155 
1151 124 35 
1152 124 38 
1153 124 44 
1154 124 62 
1155 124 68 
1156 124 80 
1157 125 108 
1158 125 118 
1159 125 12 
1160 125 15 
1161 125 151 
1162 125 156 
1163 125 184 
1164 125 31 
1165 125 33 
1166 125 36 
1167 125 38 
1168 125 42 
1169 125 44 
1170 125 62 
1171 125 68 
1172 125 80 
1173 125 95 
1174 126 0 
1175 126 108 
1176 126 118 
1177 126 12 
1178 126 122 
1179 126 15 
1180 126 151 
1181 126 155 
1182 126 170 
1183 126 184 
1184 126 186 
1185 126 189 
1186 126 27 
1187 126 31 
1188 126 33 
1189 126 35 
1190 126 38 
1191 126 42 
1192 126 44 
1193 126 48 
1194 126 5 
1195 126 62 
1196 126 68 
1197 126 80 
1198 126 92 
1199 126 95 
1200 127 110 
1201 127 15 
1202 127 151 
1203 127 23 
1204 127 38 
1205 127 44 
1206 127 68 
1207 127 80 
1208 130 109 
1209 130 113 
1210 130 121 
1211 130 154 
1212 130 157 
1213 130 18 
1214 130 185 
1215 130 187 
1216 130 190 
1217 130 192 
1218 130 26 
1219 130 28 
1220 130 32 
1221 130 34 
1222 130 37 
1223 130 41 
1224 130 43 
1225 130 47 
1226 130 6 
1227 130 71 
1228 130 8 
1229 130 83 
1230 130 96 
1231 132 103 
1232 132 104 
1233 132 115 
1234 132 116 
1235 132 127 
1236 132 133 
1237 132 136 
1238 132 143 
1239 132 145 
1240 132 148 
1241 132 149 
1242 132 159 
1243 132 160 
1244 132 163 
1245 132 164 
1246 132 195 
1247 132 20 
1248 132 21 
1249 132 57 
1250 132 58 
1251 132 59 
1252 132 60 
1253 132 66 
1254 132 73 
1255 132 74 
1256 132 77 
1257 132 78 
1258 132 99 
1259 133 131 
1260 133 137 
1261 133 152 
1262 133 153 
1263 133 16 
1264 133 17 
1265 133 180 
1266 133 39 
1267 133 40 
1268 133 45 
1269 133 46 
1270 133 69 
1271 133 70 
1272 133 81 
1273 133 82 
1274 133 89 
1275 140 103 
1276 140 128 
1277 140 129 
1278 140 133 
1279 140 134 
1280 140 137 
1281 140 138 
1282 140 139 
1283 140 144 
1284 140 146 
1285 140 150 
1286 140 16 
1287 140 168 
1288 140 175 
1289 140 178 
1290 140 179 
1291 140 18 
1292 140 185 
1293 140 187 
1294 140 22 
1295 140 24 
1296 140 26 
1297 140 28 
1298 140 31 
1299 140 33 
1300 140 35 
1301 140 37 
1302 140 39 
1303 140 42 
1304 140 43 
1305 140 47 
1306 140 53 
1307 140 74 
1308 140 78 
1309 140 80 
1310 140 82 
1311 140 84 
1312 140 87 
1313 140 91 
1314 141 131 
1315 143 11 
1316 143 122 
1317 143 126 
1318 143 190 
1319 143 193 
1320 143 195 
1321 143 23 
1322 143 27 
1323 143 31 
1324 143 34 
1325 143 38 
1326 143 42 
1327 143 46 
1328 143 50 
1329 143 7 
1330 143 71 
1331 143 79 
1332 143 83 
1333 143 87 
1334 144 0 
1335 147 21 
1336 147 32 
1337 147 43 
1338 147 47 
1339 147 77 
1340 148 101 
1341 148 148 
1342 148 21 
1343 148 32 
1344 148 43 
1345 148 47 
1346 148 51 
1347 148 77 
1348 148 90 
1349 149 101 
1350 149 12 
1351 149 120 
1352 149 148 
1353 149 181 
1354 149 189 
1355 149 192 
1356 149 21 
1357 149 32 
1358 149 43 
1359 149 47 
1360 149 5 
1361 149 51 
1362 149 70 
1363 149 77 
1364 149 90 
1365 150 123 
1366 150 43 
1367 150 47 
1368 150 8 
1369 153 11 
1370 153 126 
1371 153 190 
1372 153 193 
1373 153 195 
1374 153 46 
1375 153 50 
1376 153 71 
1377 155 128 
1378 155 134 
1379 155 137 
1380 155 144 
1381 155 146 
1382 155 168 
1383 155 179 
1384 155 74 
1385 156 132 
1386 156 138 
1387 156 175 
1388 156 44 
1389 156 45 
1390 156 48 
1391 156 49 
1392 162 0 
1393 163 102 
1394 163 103 
1395 163 107 
1396 163 12 
1397 163 125 
1398 163 126 
1399 163 13 
1400 163 130 
1401 163 131 
1402 163 134 
1403 163 135 
1404 163 136 
1405 163 141 
1406 163 143 
1407 163 146 
1408 163 147 
1409 163 151 
1410 163 152 
1411 163 155 
1412 163 156 
1413 163 157 
1414 163 16 
1415 163 162 
1416 163 164 
1417 163 170 
1418 163 172 
1419 163 182 
1420 163 183 
1421 163 191 
1422 163 192 
1423 163 23 
1424 163 26 
1425 163 28 
1426 163 29 
1427 163 31 
1428 163 32 
1429 163 34 
1430 163 36 
1431 163 44 
1432 163 47 
1433 163 51 
1434 163 53 
1435 163 57 
1436 163 59 
1437 163 66 
1438 163 68 
1439 163 70 
1440 163 75 
1441 163 77 
1442 163 81 
1443 163 83 
1444 163 88 
1445 163 90 
1446 163 92 
1447 163 94 
1448 163 97 
1449 163 99 
1450 164 128 
1451 164 149 
1452 166 11 
1453 166 175 
1454 166 178 
1455 166 180 
1456 166 188 
1457 166 196 
1458 166 31 
1459 166 34 
1460 166 45 
1461 166 50 
1462 166 53 
1463 166 55 
1464 166 63 
1465 166 67 
1466 166 7 
1467 166 70 
1468 166 73 
1469 166 76 
1470 166 80 
1471 166 82 
1472 166 86 
1473 166 89 
1474 166 93 
1475 166 97 
1476 169 26 
1477 169 46 
1478 169 57 
1479 170 26 
1480 170 29 
1481 170 32 
1482 170 46 
1483 170 51 
1484 170 57 
1485 170 68 
1486 170 77 
1487 170 83 
1488 170 87 
1489 171 105 
1490 171 27 
1491 171 29 
1492 171 32 
1493 171 35 
1494 171 44 
1495 171 46 
1496 171 51 
1497 171 58 
1498 171 66 
1499 171 68 
1500 171 75 
1501 171 77 
1502 171 81 
1503 171 83 
1504 171 87 
1505 172 105 
1506 172 166 
1507 172 174 
1508 172 177 
1509 172 194 
1510 172 26 
1511 172 29 
1512 172 32 
1513 172 35 
1514 172 44 
1515 172 46 
1516 172 5 
1517 172 51 
1518 172 54 
1519 172 57 
1520 172 66 
1521 172 68 
1522 172 71 
1523 172 75 
1524 172 77 
1525 172 81 
1526 172 83 
1527 172 87 
1528 173 185 
1529 173 46 
1530 173 60 
1531 173 77 
1532 173 8 
1533 173 83 
1534 176 11 
1535 176 175 
1536 176 178 
1537 176 180 
1538 176 188 
1539 176 28 
1540 176 45 
1541 176 55 
1542 176 59 
1543 176 63 
1544 176 67 
1545 176 76 
1546 176 80 
1547 176 82 
1548 176 86 
1549 178 103 
1550 178 125 
1551 178 13 
1552 178 131 
1553 178 134 
1554 178 141 
1555 178 143 
1556 178 146 
1557 178 152 
1558 178 155 
1559 178 16 
1560 178 162 
1561 178 164 
1562 178 183 
1563 178 191 
1564 178 99 
1565 179 129 
1566 179 135 
1567 179 150 
1568 179 156 
1569 179 23 
1570 179 48 
1571 179 49 
1572 179 78 
1573 179 79 
1574 179 84 
1575 179 85 
1576 186 100 
1577 186 107 
1578 186 108 
1579 186 112 
1580 186 113 
1581 186 116 
1582 186 117 
1583 186 118 
1584 186 123 
1585 186 125 
1586 186 128 
1587 186 129 
1588 186 13 
1589 186 133 
1590 186 134 
1591 186 137 
1592 186 138 
1593 186 139 
1594 186 144 
1595 186 146 
1596 186 149 
1597 186 150 
1598 186 154 
1599 186 155 
1600 186 158 
1601 186 159 
1602 186 160 
1603 186 165 
1604 186 167 
1605 186 178 
1606 186 179 
1607 186 18 
1608 186 185 
1609 186 192 
1610 186 27 
1611 186 31 
1612 186 34 
1613 186 35 
1614 186 36 
1615 186 39 
1616 186 41 
1617 186 43 
1618 186 45 
1619 186 54 
1620 186 6 
1621 186 70 
1622 186 72 
1623 186 75 
1624 186 80 
1625 186 82 
1626 186 84 
1627 186 86 
1628 186 89 
1629 186 98 
1630 187 110 
1631 187 131 
1632 187 152 
1633 189 103 
1634 189 171 
1635 189 175 
1636 189 182 
1637 189 19 
1638 189 197 
1639 189 23 
1640 189 30 
1641 189 32 
1642 189 40 
1643 189 44 
1644 189 48 
1645 189 50 
1646 189 55 
1647 189 59 
1648 189 66 
1649 189 71 
1650 189 73 
1651 189 78 
1652 189 81 
1653 189 85 
1654 189 89 
1655 189 93 
1656 190 0 
1657 192 74 
1658 193 20 
1659 193 27 
1660 193 38 
1661 193 56 
1662 193 63 
1663 193 74 
1664 193 79 
1665 194 18 
1666 194 20 
1667 194 27 
1668 194 31 
1669 194 38 
1670 194 54 
1671 194 56 
1672 194 63 
1673 194 70 
1674 194 72 
1675 194 74 
1676 194 79 
1677 195 102 
1678 195 169 
1679 195 18 
1680 195 181 
1681 195 195 
1682 195 20 
1683 195 27 
1684 195 31 
1685 195 38 
1686 195 47 
1687 195 54 
1688 195 56 
1689 195 63 
1690 195 70 
1691 195 72 
1692 195 74 
1693 195 79 
1694 195 94 
1695 196 20 
1696 196 27 
1697 196 56 
1698 196 63 
1699 196 74 
1700 196 90 
1701 199 0 
1702 199 103 
1703 199 182 
1704 199 19 
1705 199 23 
1706 199 30 
1707 199 32 
1708 199 48 
1709 199 50 
1710 199 55 
1711 199 59 
1712 199 66 
1713 199 71 
1714 199 73 
1715 199 93 
1716 201 107 
1717 201 113 
1718 201 116 
1719 201 123 
1720 201 125 
1721 201 128 
1722 201 134 
1723 201 137 
1724 201 144 
1725 201 146 
1726 201 149 
1727 201 155 
1728 201 158 
1729 201 165 
1730 201 167 
1731 201 179 
1732 201 185 
1733 201 34 
1734 201 6 
1735 202 111 
1736 202 117 
1737 202 13 
1738 202 132 
1739 202 138 
1740 202 153 
1741 202 159 
1742 202 192 
1743 202 21 
1744 202 23 
1745 202 24 
1746 202 25 
1747 202 28 
1748 202 29 
1749 202 35 
1750 202 57 
1751 202 59 
1752 202 60 
1753 202 61 
1754 202 64 
1755 202 66 
1756 202 67 
1757 202 68 
1758 202 76 
1759 202 77 
1760 206 0 
1761 208 0 
1762 209 100 
1763 209 104 
1764 209 130 
1765 209 131 
1766 209 133 
1767 209 136 
1768 209 140 
1769 209 144 
1770 209 149 
1771 209 158 
1772 209 16 
1773 209 163 
1774 209 165 
1775 209 167 
1776 209 169 
1777 209 171 
1778 209 173 
1779 209 175 
1780 209 177 
1781 209 179 
1782 209 18 
1783 209 181 
1784 209 182 
1785 209 183 
1786 209 185 
1787 209 187 
1788 209 188 
1789 209 190 
1790 209 191 
1791 209 192 
1792 209 195 
1793 209 20 
1794 209 21 
1795 209 22 
1796 209 24 
1797 209 26 
1798 209 27 
1799 209 30 
1800 209 32 
1801 209 34 
1802 209 36 
1803 209 39 
1804 209 40 
1805 209 41 
1806 209 45 
1807 209 47 
1808 209 50 
1809 209 53 
1810 209 70 
1811 209 75 
1812 209 77 
1813 209 79 
1814 209 81 
1815 209 84 
1816 209 98 
1817 212 11 
1818 212 123 
1819 212 127 
1820 212 134 
1821 212 139 
1822 212 143 
1823 212 147 
1824 212 152 
1825 212 26 
1826 212 28 
1827 212 31 
1828 212 35 
1829 212 46 
1830 212 50 
1831 212 7 
1832 212 73 
1833 212 76 
1834 212 80 
1835 212 84 
1836 212 88 
1837 212 92 
1838 215 135 
1839 215 148 
1840 215 170 
1841 215 178 
1842 215 185 
1843 216 135 
1844 216 140 
1845 216 144 
1846 216 148 
1847 216 163 
1848 216 171 
1849 216 181 
1850 216 185 
1851 216 190 
1852 216 203 
1853 216 24 
1854 216 29 
1855 216 44 
1856 216 70 
1857 216 74 
1858 216 85 
1859 216 88 
1860 216 92 
1861 217 0 
1862 217 102 
1863 217 133 
1864 217 135 
1865 217 140 
1866 217 144 
1867 217 148 
1868 217 186 
1869 217 203 
1870 217 24 
1871 217 27 
1872 217 29 
1873 217 44 
1874 217 51 
1875 217 70 
1876 217 74 
1877 217 86 
1878 217 90 
1879 218 102 
1880 218 12 
1881 218 121 
1882 218 133 
1883 218 135 
1884 218 140 
1885 218 144 
1886 218 148 
1887 218 180 
1888 218 185 
1889 218 189 
1890 218 203 
1891 218 24 
1892 218 27 
1893 218 29 
1894 218 44 
1895 218 5 
1896 218 51 
1897 218 70 
1898 218 74 
1899 218 94 
1900 219 124 
1901 219 135 
1902 219 140 
1903 219 144 
1904 219 148 
1905 219 170 
1906 219 178 
1907 219 70 
1908 219 8 
1909 222 11 
1910 222 127 
1911 222 134 
1912 222 143 
1913 222 147 
1914 222 170 
1915 222 178 
1916 222 183 
1917 222 187 
1918 222 192 
1919 222 28 
1920 222 73 
1921 222 87 
1922 222 91 
1923 224 131 
1924 224 195 
1925 224 21 
1926 224 22 
1927 224 39 
1928 225 137 
1929 225 138 
1930 225 141 
1931 225 142 
1932 225 145 
1933 225 146 
1934 225 150 
1935 225 151 
1936 225 158 
1937 225 40 
1938 225 71 
1939 225 72 
1940 226 0 
1941 232 113 
1942 232 117 
1943 232 122 
1944 232 127 
1945 232 128 
1946 232 13 
1947 232 132 
1948 232 133 
1949 232 136 
1950 232 137 
1951 232 138 
1952 232 143 
1953 232 145 
1954 232 147 
1955 232 149 
1956 232 15 
1957 232 151 
1958 232 152 
1959 232 154 
1960 232 155 
1961 232 157 
1962 232 167 
1963 232 168 
1964 232 17 
1965 232 170 
1966 232 171 
1967 232 178 
1968 232 18 
1969 232 180 
1970 232 182 
1971 232 184 
1972 232 186 
1973 232 188 
1974 232 190 
1975 232 192 
1976 232 195 
1977 232 20 
1978 232 203 
1979 232 22 
1980 232 23 
1981 232 25 
1982 232 31 
1983 232 33 
1984 232 41 
1985 232 43 
1986 232 45 
1987 232 47 
1988 232 50 
1989 232 60 
1990 232 63 
1991 232 76 
1992 233 130 
1993 233 203 
1994 234 203 
1995 235 0 
1996 235 103 
1997 235 108 
1998 235 116 
1999 235 120 
2000 235 125 
2001 235 13 
2002 235 148 
2003 235 151 
2004 235 157 
2005 235 160 
2006 235 164 
2007 235 17 
2008 235 175 
2009 235 19 
2010 235 22 
2011 235 24 
2012 235 26 
2013 235 36 
2014 235 42 
2015 235 46 
2016 235 50 
2017 235 54 
2018 235 58 
2019 235 6 
2020 235 61 
2021 235 66 
2022 235 71 
2023 235 77 
2024 235 8 
2025 235 82 
2026 235 91 
2027 235 99 
2028 238 100 
2029 238 121 
2030 238 152 
2031 238 185 
2032 238 193 
2033 238 62 
2034 238 67 
2035 238 73 
2036 238 78 
2037 238 84 
2038 238 87 
2039 238 93 
2040 239 113 
2041 239 117 
2042 239 121 
2043 239 149 
2044 239 15 
2045 239 152 
2046 239 155 
2047 239 178 
2048 239 186 
2049 239 20 
2050 239 40 
2051 239 51 
2052 239 54 
2053 239 58 
2054 239 62 
2055 239 67 
2056 239 73 
2057 239 78 
2058 239 84 
2059 239 87 
2060 239 93 
2061 240 113 
2062 240 117 
2063 240 12 
2064 240 121 
2065 240 147 
2066 240 149 
2067 240 15 
2068 240 153 
2069 240 155 
2070 240 18 
2071 240 20 
2072 240 23 
2073 240 25 
2074 240 40 
2075 240 52 
2076 240 56 
2077 240 60 
2078 240 62 
2079 240 67 
2080 240 73 
2081 240 76 
2082 240 78 
2083 240 84 
2084 240 87 
2085 240 93 
2086 241 113 
2087 241 117 
2088 241 12 
2089 241 121 
2090 241 147 
2091 241 149 
2092 241 15 
2093 241 152 
2094 241 155 
2095 241 158 
2096 241 173 
2097 241 18 
2098 241 20 
2099 241 23 
2100 241 25 
2101 241 27 
2102 241 35 
2103 241 40 
2104 241 5 
2105 241 60 
2106 241 62 
2107 241 67 
2108 241 74 
2109 241 76 
2110 241 78 
2111 241 85 
2112 241 87 
2113 241 94 
2114 242 113 
2115 242 117 
2116 242 121 
2117 242 185 
2118 242 193 
2119 242 62 
2120 242 67 
2121 242 78 
2122 242 87 
2123 242 96 
2124 244 0 
2125 245 0 
2126 245 103 
2127 245 108 
2128 245 116 
2129 245 120 
2130 245 13 
2131 245 148 
2132 245 154 
2133 245 185 
2134 245 19 
2135 245 193 
2136 245 24 
2137 245 26 
2138 245 36 
2139 245 53 
2140 245 57 
2141 245 6 
2142 245 61 
2143 245 77 
2144 245 8 
2145 245 99 
2146 247 127 
2147 247 133 
2148 247 136 
2149 247 143 
2150 247 145 
2151 247 167 
2152 247 171 
2153 247 195 
2154 248 114 
2155 248 115 
2156 248 118 
2157 248 119 
2158 248 123 
2159 248 124 
2160 248 131 
2161 248 137 
2162 248 64 
2163 248 65 
2164 248 68 
2165 248 69 
2166 248 71 
2167 248 72 
2168 248 73 
2169 248 79 
2170 248 80 
2171 248 82 
2172 248 83 
2173 248 84 
2174 248 88 
2175 248 89 
2176 248 91 
2177 248 92 
2178 248 93 
2179 253 0 
2180 255 11 
2181 255 122 
2182 255 123 
2183 255 133 
2184 255 134 
2185 255 136 
2186 255 148 
2187 255 149 
2188 255 150 
2189 255 151 
2190 255 17 
2191 255 174 
2192 255 176 
2193 255 177 
2194 255 178 
2195 255 180 
2196 255 182 
2197 255 184 
2198 255 186 
2199 255 19 
2200 255 24 
2201 255 26 
2202 255 28 
2203 255 30 
2204 255 32 
2205 255 34 
2206 255 36 
2207 255 38 
2208 255 40 
2209 255 42 
2210 255 43 
2211 255 44 
2212 255 46 
2213 255 48 
2214 255 49 
2215 255 50 
2216 255 52 
2217 255 54 
2218 255 55 
2219 255 56 
2220 255 58 
2221 255 60 
2222 255 61 
2223 255 62 
2224 255 64 
2225 255 66 
2226 255 67 
2227 255 68 
2228 255 70 
2229 255 72 
2230 255 73 
2231 255 74 
2232 255 84 
2233 256 137 
2234 258 0 
2235 258 11 
2236 258 190 
2237 258 193 
2238 258 197 
2239 258 22 
2240 258 6 
2241 258 79 
2242 258 8 
2243 261 187 
2244 261 31 
2245 261 39 
2246 262 0 
2247 262 167 
2248 262 176 
2249 262 180 
2250 262 24 
2251 262 32 
2252 262 42 
2253 262 48 
2254 262 54 
2255 262 60 
2256 262 66 
2257 262 72 
2258 263 10 
2259 263 82 
2260 264 10 
2261 264 101 
2262 264 13 
2263 264 167 
2264 264 175 
2265 264 188 
2266 264 191 
2267 264 21 
2268 264 41 
2269 264 47 
2270 264 5 
2271 264 53 
2272 264 59 
2273 264 65 
2274 264 71 
2275 264 82 
2276 265 187 
2277 265 31 
2278 265 39 
2279 265 76 
2280 268 0 
2281 268 11 
2282 268 178 
2283 268 187 
2284 268 203 
2285 268 22 
2286 268 31 
2287 268 39 
2288 268 44 
2289 268 50 
2290 268 56 
2291 268 6 
2292 268 62 
2293 268 68 
2294 268 74 
2295 268 79 
2296 268 8 
2297 270 122 
2298 270 148 
2299 270 150 
2300 271 0 
2301 271 121 
2302 271 132 
2303 271 138 
2304 271 151 
2305 278 101 
2306 278 103 
2307 278 105 
2308 278 107 
2309 278 109 
2310 278 11 
2311 278 111 
2312 278 113 
2313 278 115 
2314 278 116 
2315 278 117 
2316 278 119 
2317 278 121 
2318 278 122 
2319 278 123 
2320 278 126 
2321 278 127 
2322 278 13 
2323 278 131 
2324 278 132 
2325 278 135 
2326 278 136 
2327 278 137 
2328 278 142 
2329 278 144 
2330 278 147 
2331 278 148 
2332 278 15 
2333 278 152 
2334 278 153 
2335 278 156 
2336 278 157 
2337 278 158 
2338 278 163 
2339 278 165 
2340 278 167 
2341 278 169 
2342 278 17 
2343 278 170 
2344 278 171 
2345 278 173 
2346 278 175 
2347 278 176 
2348 278 177 
2349 278 179 
2350 278 181 
2351 278 182 
2352 278 183 
2353 278 186 
2354 278 188 
2355 278 19 
2356 278 190 
2357 278 192 
2358 278 21 
2359 278 23 
2360 278 25 
2361 278 27 
2362 278 29 
2363 278 31 
2364 278 33 
2365 278 35 
2366 278 37 
2367 278 39 
2368 278 41 
2369 278 43 
2370 278 45 
2371 278 47 
2372 278 49 
2373 278 51 
2374 278 53 
2375 278 55 
2376 278 57 
2377 278 67 
2378 278 69 
2379 278 73 
2380 278 75 
2381 278 76 
2382 278 77 
2383 278 79 
2384 278 81 
2385 278 82 
2386 278 83 
2387 278 85 
2388 278 87 
2389 278 88 
2390 278 89 
2391 278 9 
2392 278 91 
2393 278 93 
2394 278 94 
2395 278 95 
2396 278 97 
2397 278 99 
2398 279 129 
2399 279 150 
2400 280 0 
2401 281 197 
2402 281 6 
2403 281 62 
2404 283 0 
2405 283 203 
2406 284 104 
2407 284 112 
2408 284 18 
2409 284 193 
2410 284 26 
2411 284 34 
2412 284 42 
2413 284 50 
2414 284 58 
2415 285 105 
2416 285 11 
2417 285 115 
2418 285 121 
2419 285 169 
2420 285 175 
2421 285 181 
2422 285 186 
2423 285 19 
2424 285 27 
2425 285 35 
2426 285 43 
2427 285 51 
2428 285 75 
2429 285 81 
2430 285 87 
2431 285 93 
2432 285 97 
2433 287 114 
2434 287 120 
2435 287 168 
2436 287 174 
2437 287 180 
2438 287 5 
2439 287 63 
2440 287 74 
2441 287 80 
2442 287 86 
2443 287 92 
2444 288 0 
2445 288 104 
2446 288 112 
2447 288 18 
2448 288 193 
2449 288 194 
2450 288 203 
2451 288 26 
2452 288 34 
2453 288 42 
2454 288 50 
2455 288 58 
2456 288 59 
2457 289 0 
2458 291 0 
2459 291 104 
2460 291 112 
2461 291 117 
2462 291 123 
2463 291 171 
2464 291 177 
2465 291 18 
2466 291 183 
2467 291 193 
2468 291 197 
2469 291 26 
2470 291 34 
2471 291 42 
2472 291 50 
2473 291 58 
2474 291 6 
2475 291 62 
2476 291 77 
2477 291 83 
2478 291 89 
2479 291 95 
2480 293 126 
2481 293 132 
2482 293 135 
2483 293 142 
2484 293 144 
2485 293 147 
2486 293 153 
2487 293 156 
2488 293 163 
2489 293 165 
2490 293 9 
2491 294 130 
2492 294 136 
2493 294 151 
2494 294 157 
2495 294 203 
2496 295 203 
2497 296 203 
2498 297 203 
2499 299 10 
2500 299 100 
2501 299 102 
2502 299 103 
2503 299 104 
2504 299 105 
2505 299 106 
2506 299 107 
2507 299 110 
2508 299 112 
2509 299 115 
2510 299 118 
2511 299 121 
2512 299 124 
2513 299 127 
2514 299 13 
2515 299 130 
2516 299 136 
2517 299 139 
2518 299 142 
2519 299 145 
2520 299 148 
2521 299 151 
2522 299 154 
2523 299 16 
2524 299 160 
2525 299 163 
2526 299 166 
2527 299 169 
2528 299 172 
2529 299 175 
2530 299 178 
2531 299 181 
2532 299 184 
2533 299 187 
2534 299 19 
2535 299 190 
2536 299 193 
2537 299 196 
2538 299 199 
2539 299 22 
2540 299 25 
2541 299 28 
2542 299 31 
2543 299 34 
2544 299 37 
2545 299 4 
2546 299 40 
2547 299 43 
2548 299 46 
2549 299 49 
2550 299 52 
2551 299 55 
2552 299 58 
2553 299 61 
2554 299 64 
2555 299 67 
2556 299 7 
2557 299 70 
2558 299 73 
2559 299 76 
2560 299 79 
2561 299 82 
2562 299 88 
2563 299 91 
2564 299 94 
2565 299 97 
